Traveling Salesman Problem/TSP_generados/Aleatorio1620391010_12.tsp
NAME: Aleatorio1620391010_12.tsp
COMMENT: Randomly generated scenario
TYPE: TSP
DIMENSION: 12
EDGE_WEIGHT_TYPE: ATT
NODE_COORD_SECTION
1 29.57 22.21
2 27.12 23.41
3 40.21 47.49
4 14.08 30.91
5 18.65 15.06
6 18.45 28.39
7 1.47 45.1
8 26.65 0.16
9 14.68 12.54
10 49.76 16.18
11 49.27 36.15
12 49.46 47.97
