Traveling Salesman Problem/TSP_generados/Aleatorio1620391010_12.opt.tour
NAME: Aleatorio1620391010_12.opt.tour
COMMENT: Optimal solution for Aleatorio1620391010_12 (179.72300486621862)
TYPE: TOUR
DIMENSION: 12
TOUR_SECTION
1 5 9 8 10 11 12 3 7 4 6 2
-1
EOF
